W = 7;
H = 12;

cost = [| 0,1,2,3,2,1,0
        | 0,1,2,3,2,1,0
        | 0,1,2,3,2,1,0
        | 0,1,2,3,2,1,0
        | 0,0,1,2,1,0,0
        | 0,0,1,2,1,0,0
        | 0,0,1,2,1,0,0
        | 0,0,1,2,1,0,0
        | 0,1,2,3,2,1,0
        | 0,1,2,3,2,1,0
        | 0,1,2,3,2,1,0
        | 0,1,2,3,2,1,0
        |];
reward = [| 4,7,-12,0,0,0,3
          | 0,0,0,0,3,0,4
          | 0,0,4,0,7,0,0
          | 7,0,3,0,-12,-12,0
          | -12,-12,-12,0,3,0,0
          | -12,-12,0,7,0,0,7
          | -12,-12,0,0,0,4,-12
          | -12,4,4,0,0,0,-12
          | -12,0,-12,-12,0,3,0
          | 0,0,3,0,4,-12,-12
          | 3,0,0,0,0,-12,-12
          | 7,0,7,4,-12,-12,-12
          |];

limit = 18; 
budget = 18;                  
          